<number of tasks>
28

<cycle time>
342

<task times>
1 70
2 59
3 33
4 6
5 1
6 27
7 17
8 62
9 31
10 53
11 21
12 19
13 108
14 52
15 5
16 8
17 97
18 8
19 47
20 67
21 17
22 8
23 3
24 21
25 107
26 3
27 2
28 72

<precedence relations>
1,2
1,3
1,4
1,5
1,8
1,19
1,21
1,22
1,23
1,24
1,26
2,6
2,17
3,28
4,28
5,28
6,7
7,18
8,9
9,10
10,11
10,12
11,15
12,13
13,14
13,16
14,28
15,28
16,28
17,28
18,28
19,20
20,28
21,28
22,28
23,28
24,25
25,28
26,27
27,28

<setup times forward>
1,5:2
1,21:3
2,5:2
2,9:3
2,10:3
2,11:3
2,12:3
2,13:3
2,14:2
2,15:2
2,16:2
2,17:2
2,20:3
2,21:3
2,25:2
3,5:2
3,7:3
3,9:3
3,10:3
3,11:3
3,12:3
3,13:3
3,14:2
3,15:2
3,16:2
3,17:2
3,18:3
3,20:3
3,21:3
3,25:2
3,28:2
4,5:2
4,7:3
4,9:3
4,10:3
4,11:3
4,12:3
4,13:3
4,14:2
4,15:2
4,16:2
4,17:2
4,18:3
4,20:3
4,21:3
4,25:2
4,28:2
5,2:2
5,3:2
5,4:2
5,6:2
5,7:5
5,8:2
5,9:5
5,10:5
5,11:5
5,12:5
5,13:5
5,18:5
5,19:2
5,20:5
5,21:5
5,22:2
5,23:2
5,24:2
5,26:2
5,27:2
6,5:2
6,7:3
6,9:3
6,10:3
6,11:3
6,12:3
6,13:3
6,14:2
6,15:2
6,16:2
6,17:2
6,20:3
6,21:3
6,25:2
7,3:3
7,4:3
7,5:5
7,8:3
7,14:5
7,15:5
7,16:5
7,17:5
7,19:3
7,22:3
7,23:3
7,24:3
7,25:5
7,26:3
7,27:3
8,5:2
8,7:3
8,9:3
8,17:2
8,18:3
8,20:3
8,21:3
8,25:2
9,2:3
9,3:3
9,4:3
9,5:5
9,6:3
9,17:5
9,19:3
9,22:3
9,23:3
9,24:3
9,25:5
9,26:3
9,27:3
10,2:3
10,3:3
10,4:3
10,5:5
10,6:3
10,17:5
10,19:3
10,22:3
10,23:3
10,24:3
10,25:5
10,26:3
10,27:3
11,2:3
11,3:3
11,4:3
11,5:5
11,6:3
11,14:5
11,15:5
11,16:5
11,17:5
11,19:3
11,22:3
11,23:3
11,24:3
11,25:5
11,26:3
11,27:3
12,2:3
12,3:3
12,4:3
12,5:5
12,6:3
12,15:5
12,17:5
12,19:3
12,22:3
12,23:3
12,24:3
12,25:5
12,26:3
12,27:3
13,2:3
13,3:3
13,4:3
13,5:5
13,6:3
13,14:5
13,15:5
13,16:5
13,17:5
13,19:3
13,22:3
13,23:3
13,24:3
13,25:5
13,26:3
13,27:3
14,2:2
14,3:2
14,4:2
14,6:2
14,7:5
14,11:5
14,18:5
14,19:2
14,20:5
14,21:5
14,22:2
14,23:2
14,24:2
14,26:2
14,27:2
15,2:2
15,3:2
15,4:2
15,6:2
15,7:5
15,12:5
15,13:5
15,18:5
15,19:2
15,20:5
15,21:5
15,22:2
15,23:2
15,24:2
15,26:2
15,27:2
16,2:2
16,3:2
16,4:2
16,6:2
16,7:5
16,11:5
16,18:5
16,19:2
16,20:5
16,21:5
16,22:2
16,23:2
16,24:2
16,26:2
16,27:2
17,3:2
17,4:2
17,6:2
17,7:5
17,8:2
17,9:5
17,10:5
17,11:5
17,12:5
17,13:5
17,18:5
17,19:2
17,20:5
17,21:5
17,22:2
17,23:2
17,24:2
17,26:2
17,27:2
18,3:3
18,4:3
18,5:5
18,8:3
18,14:5
18,15:5
18,16:5
18,17:5
18,19:3
18,22:3
18,23:3
18,24:3
18,25:5
18,26:3
18,27:3
18,28:5
19,5:2
19,7:3
19,9:3
19,10:3
19,11:3
19,12:3
19,13:3
19,14:2
19,15:2
19,16:2
19,17:2
19,18:3
19,20:3
19,21:3
19,25:2
20,2:3
20,3:3
20,4:3
20,5:5
20,6:3
20,8:3
20,14:5
20,15:5
20,16:5
20,17:5
20,22:3
20,23:3
20,24:3
20,25:5
20,26:3
20,27:3
20,28:5
21,2:3
21,3:3
21,4:3
21,5:5
21,6:3
21,8:3
21,14:5
21,15:5
21,16:5
21,17:5
21,19:3
21,22:3
21,23:3
21,24:3
21,25:5
21,26:3
21,27:3
21,28:5
22,5:2
22,7:3
22,9:3
22,10:3
22,11:3
22,12:3
22,13:3
22,14:2
22,15:2
22,16:2
22,17:2
22,18:3
22,20:3
22,21:3
22,25:2
22,28:2
23,5:2
23,7:3
23,9:3
23,10:3
23,11:3
23,12:3
23,13:3
23,14:2
23,15:2
23,16:2
23,17:2
23,18:3
23,20:3
23,21:3
23,25:2
23,28:2
24,5:2
24,7:3
24,9:3
24,10:3
24,11:3
24,12:3
24,13:3
24,14:2
24,15:2
24,16:2
24,17:2
24,18:3
24,20:3
24,21:3
24,25:2
25,2:2
25,3:2
25,4:2
25,6:2
25,7:5
25,8:2
25,9:5
25,10:5
25,11:5
25,12:5
25,13:5
25,18:5
25,19:2
25,20:5
25,21:5
25,22:2
25,23:2
25,26:2
25,27:2
26,5:2
26,7:3
26,9:3
26,10:3
26,11:3
26,12:3
26,13:3
26,14:2
26,15:2
26,16:2
26,17:2
26,18:3
26,20:3
26,21:3
26,25:2
27,5:2
27,7:3
27,9:3
27,10:3
27,11:3
27,12:3
27,13:3
27,14:2
27,15:2
27,16:2
27,17:2
27,18:3
27,20:3
27,21:3
27,25:2
27,28:2

<setup times backward>
2,5:2
2,14:2
2,15:2
2,16:2
2,25:2
3,5:2
3,14:2
3,15:2
3,16:2
3,17:2
3,25:2
4,5:2
4,14:2
4,15:2
4,16:2
4,17:2
4,25:2
6,5:2
6,14:2
6,15:2
6,16:2
6,17:2
6,25:2
7,1:3
7,2:3
7,3:3
7,4:3
7,5:5
7,6:3
7,8:3
7,14:5
7,15:5
7,16:5
7,17:5
7,19:3
7,22:3
7,23:3
7,24:3
7,25:5
7,26:3
7,27:3
8,5:2
8,17:2
8,25:2
9,1:3
9,2:3
9,3:3
9,4:3
9,5:5
9,6:3
9,8:3
9,17:5
9,19:3
9,22:3
9,23:3
9,24:3
9,25:5
9,26:3
9,27:3
10,1:3
10,2:3
10,3:3
10,4:3
10,5:5
10,6:3
10,8:3
10,17:5
10,19:3
10,22:3
10,23:3
10,24:3
10,25:5
10,26:3
10,27:3
11,1:3
11,2:3
11,3:3
11,4:3
11,5:5
11,6:3
11,8:3
11,14:5
11,16:5
11,17:5
11,19:3
11,22:3
11,23:3
11,24:3
11,25:5
11,26:3
11,27:3
12,1:3
12,2:3
12,3:3
12,4:3
12,5:5
12,6:3
12,8:3
12,15:5
12,17:5
12,19:3
12,22:3
12,23:3
12,24:3
12,25:5
12,26:3
12,27:3
13,1:3
13,2:3
13,3:3
13,4:3
13,5:5
13,6:3
13,8:3
13,15:5
13,17:5
13,19:3
13,22:3
13,23:3
13,24:3
13,25:5
13,26:3
13,27:3
18,1:3
18,2:3
18,3:3
18,4:3
18,5:5
18,6:3
18,8:3
18,14:5
18,15:5
18,16:5
18,17:5
18,19:3
18,22:3
18,23:3
18,24:3
18,25:5
18,26:3
18,27:3
19,5:2
19,14:2
19,15:2
19,16:2
19,17:2
19,25:2
20,1:3
20,2:3
20,3:3
20,4:3
20,5:5
20,6:3
20,8:3
20,14:5
20,15:5
20,16:5
20,17:5
20,19:3
20,22:3
20,23:3
20,24:3
20,25:5
20,26:3
20,27:3
21,1:3
21,2:3
21,3:3
21,4:3
21,5:5
21,6:3
21,8:3
21,14:5
21,15:5
21,16:5
21,17:5
21,19:3
21,22:3
21,23:3
21,24:3
21,25:5
21,26:3
21,27:3
22,5:2
22,14:2
22,15:2
22,16:2
22,17:2
22,25:2
23,5:2
23,14:2
23,15:2
23,16:2
23,17:2
23,25:2
24,5:2
24,14:2
24,15:2
24,16:2
24,17:2
26,5:2
26,14:2
26,15:2
26,16:2
26,17:2
26,25:2
27,5:2
27,14:2
27,15:2
27,16:2
27,17:2
27,25:2

<end>

<optimal SALBP-1 value>
3


<rand seed>
467321153

